(set-option :print-success false)
(set-logic QF_UF)
(declare-sort x137 0)
(declare-sort x151 0)
(declare-fun x6 () x151)
(declare-fun x40 () x151)
(declare-fun x101 (x151 x151) x151)
(declare-fun x124 (x151 x151) x151)
(declare-fun x57 () x151)
(declare-fun x49 () x151)
(declare-fun x90 () x151)
(assert (or (and (and (not (= x6 (x124 x49 (x124 x6 x49)))) (and (and (not (= (x124 x57 (x124 x6 x57)) x6)) (not (= (x124 x40 (x124 x6 x40)) x6))) (not (= x6 (x124 x90 (x124 x6 x90)))))) (not (= x6 (x124 x6 (x124 x6 x6))))) (or (and (not (= (x124 x6 (x124 x49 x6)) x49)) (and (not (= x49 (x124 x49 (x124 x49 x49)))) (and (and (not (= (x124 x40 (x124 x49 x40)) x49)) (not (= x49 (x124 x57 (x124 x49 x57))))) (not (= (x124 x90 (x124 x49 x90)) x49))))) (or (and (not (= x90 (x124 x6 (x124 x90 x6)))) (and (not (= (x124 x49 (x124 x90 x49)) x90)) (and (and (not (= x90 (x124 x57 (x124 x90 x57)))) (not (= (x124 x40 (x124 x90 x40)) x90))) (not (= (x124 x90 (x124 x90 x90)) x90))))) (or (and (not (= x40 (x124 x6 (x124 x40 x6)))) (and (not (= x40 (x124 x49 (x124 x40 x49)))) (and (not (= (x124 x90 (x124 x40 x90)) x40)) (and (not (= x40 (x124 x57 (x124 x40 x57)))) (not (= (x124 x40 (x124 x40 x40)) x40)))))) (and (not (= x57 (x124 x6 (x124 x57 x6)))) (and (and (and (not (= x57 (x124 x57 (x124 x57 x57)))) (not (= x57 (x124 x40 (x124 x57 x40))))) (not (= (x124 x90 (x124 x57 x90)) x57))) (not (= (x124 x49 (x124 x57 x49)) x57)))))))))
(assert (let ((x143 (x124 x57 x6)) (x91 (x124 x6 x57)) (x85 (x124 x6 x49)) (x53 (x124 x6 x6)) (x56 (x124 x40 x49)) (x87 (x124 x40 x6)) (x15 (x124 x90 x90)) (x98 (x124 x90 x40)) (x16 (x124 x40 x57)) (x7 (x124 x57 x90)) (x24 (x124 x40 x40)) (x82 (x124 x57 x49)) (x21 (x124 x40 x90)) (x139 (x124 x49 x40)) (x155 (x124 x49 x49)) (x111 (x124 x49 x6)) (x83 (x124 x49 x90)) (x29 (x124 x6 x90)) (x64 (x124 x90 x6)) (x69 (x124 x57 x40)) (x43 (x124 x6 x40)) (x67 (x124 x49 x57)) (x11 (x124 x57 x57)) (x33 (x124 x90 x49)) (x10 (x124 x90 x57))) (let ((x3 (= x49 x11)) (x28 (= x6 x33)) (x77 (= x49 x15)) (x68 (= x6 x16)) (x147 (= x16 x40)) (x36 (= x43 x6)) (x123 (= x143 x90)) (x30 (= x40 x7)) (x106 (= x98 x90)) (x144 (= x67 x40)) (x97 (= x143 x49)) (x132 (= x57 x53)) (x113 (= x40 x111)) (x47 (= x64 x90)) (x75 (= x139 x57)) (x127 (= x49 x7)) (x135 (= x49 x33)) (x86 (= x49 x29)) (x99 (= x6 x155)) (x103 (= x90 x111)) (x108 (= x57 x155)) (x92 (= x57 x15)) (x59 (= x6 x82)) (x4 (= x49 x64)) (x50 (= x7 x57)) (x125 (= x33 x57)) (x19 (= x57 x85)) (x62 (= x57 x143)) (x89 (= x82 x90)) (x118 (= x11 x57)) (x141 (= x56 x40)) (x20 (= x64 x40)) (x63 (= x90 x11)) (x152 (= x82 x49)) (x8 (= x67 x49)) (x39 (= x87 x49)) (x159 (= x10 x6)) (x84 (= x40 x83)) (x122 (= x21 x40)) (x34 (= x57 x29)) (x112 (= x33 x40)) (x32 (= x111 x57)) (x150 (= x40 x24)) (x109 (= x91 x57)) (x128 (= x111 x6)) (x100 (= x87 x57)) (x154 (= x40 x53)) (x116 (= x40 x98)) (x145 (= x49 x10)) (x46 (= x91 x6)) (x94 (= x7 x6)) (x157 (= x57 x64)) (x133 (= x90 x21)) (x158 (= x15 x6)) (x55 (= x90 x83)) (x102 (= x155 x90)) (x136 (= x49 x155)) (x25 (= x69 x40)) (x96 (= x49 x56)) (x41 (= x33 x90)) (x142 (= x11 x40)) (x5 (= x29 x40)) (x26 (= x7 x90)) (x153 (= x43 x57)) (x81 (= x10 x40)) (x88 (= x16 x90)) (x120 (= x40 x155)) (x13 (= x67 x90)) (x126 (= x24 x90)) (x95 (= x143 x6)) (x130 (= x21 x6)) (x18 (= x49 x53)) (x12 (= x49 x24)) (x27 (= x56 x90)) (x134 (= x40 x43)) (x2 (= x139 x49)) (x23 (= x90 x91)) (x66 (= x85 x40)) (x65 (= x57 x16)) (x52 (= x40 x82)) (x60 (= x67 x57)) (x80 (= x49 x83)) (x146 (= x90 x69)) (x51 (= x90 x139)) (x1 (= x91 x49)) (x74 (= x83 x6)) (x110 (= x6 x24)) (x35 (= x40 x91)) (x156 (= x6 x139)) (x38 (= x85 x90)) (x45 (= x6 x64)) (x14 (= x49 x43)) (x140 (= x57 x10)) (x115 (= x90 x87)) (x22 (= x98 x57)) (x58 (= x15 x40)) (x149 (= x87 x6)) (x129 (= x21 x57)) (x138 (= x98 x49)) (x121 (= x57 x24)) (x9 (= x143 x40)) (x44 (= x21 x49)) (x76 (= x6 x69)) (x48 (= x40 x87)) (x54 (= x15 x90)) (x117 (= x6 x67)) (x148 (= x57 x83)) (x104 (= x56 x57)) (x107 (= x85 x49)) (x79 (= x6 x53)) (x61 (= x6 x85)) (x114 (= x53 x90)) (x72 (= x49 x69)) (x70 (= x90 x43)) (x78 (= x90 x29)) (x119 (= x49 x111)) (x31 (= x57 x69)) (x93 (= x10 x90)) (x71 (= x11 x6)) (x105 (= x6 x29)) (x73 (= x98 x6)) (x42 (= x40 x139)) (x37 (= x56 x6)) (x17 (= x82 x57)) (x131 (= x16 x49))) (and (and (and (and (and (and (and (or (or (or x138 (or x72 x12)) x2) x14) (or (or (or x44 (or x131 x12)) x96) x39)) (and (and (or (or x27 (or (or x88 x126) x133)) x115) (or (or x51 (or (or x126 x146) x106)) x70)) (and (and (or x100 (or x104 (or (or x121 x65) x129))) (or (or (or (or x121 x31) x22) x75) x153)) (and (or (or x42 (or x116 (or x25 x150))) x134) (or (or x141 (or (or x147 x150) x122)) x48))))) (and (or (or (or x130 (or x110 x68)) x37) x149) (or (or x156 (or (or x76 x110) x73)) x36))) (and (and (or (or x59 (or x94 (or x71 x76))) x95) (or (or (or (or x68 x71) x159) x117) x46)) (and (and (and (or (or x13 (or (or x63 x88) x93)) x23) (or (or (or (or x63 x146) x26) x89) x123)) (and (and (or (or (or x81 (or x147 x142)) x144) x35) (or (or (or x30 (or x25 x142)) x52) x9)) (and (or x62 (or x17 (or x50 (or x118 x31)))) (or x109 (or (or x140 (or x118 x65)) x60))))) (and (or x97 (or x152 (or (or x72 x3) x127))) (or x1 (or (or (or x3 x131) x145) x8)))))) (and (and (or (or (or x158 (or x94 x130)) x74) x105) (or (or x28 (or (or x159 x73) x158)) x45)) (and (and (and (and (or (or x148 (or (or x129 x50) x92)) x34) (or (or (or x92 (or x22 x140)) x125) x157)) (and (or x5 (or (or (or x122 x30) x58) x84)) (or (or (or (or x81 x116) x58) x112) x20))) (and (or x47 (or (or (or x93 x106) x54) x41)) (or (or x55 (or (or x133 x26) x54)) x78))) (and (or (or (or (or x44 x127) x77) x80) x86) (or (or (or x77 (or x138 x145)) x135) x4))))) (and (and (or (or (or x74 (or x117 x156)) x99) x128) (or x61 (or x99 (or (or x37 x59) x28)))) (and (and (and (or x103 (or x102 (or x55 (or x13 x51)))) (or (or (or x41 (or x27 x89)) x102) x38)) (and (and (or x32 (or x108 (or (or x75 x60) x148))) (or (or x108 (or x125 (or x17 x104))) x19)) (and (or x113 (or x120 (or x84 (or x42 x144)))) (or x66 (or (or x112 (or x141 x52)) x120))))) (and (or (or (or x80 (or x8 x2)) x136) x119) (or x107 (or x136 (or x135 (or x96 x152)))))))) (and (and (or x79 (or (or (or x95 x149) x45) x128)) (or x79 (or x61 (or (or x36 x46) x105)))) (and (and (or (or (or (or x14 x1) x86) x107) x18) (or x18 (or x119 (or (or x39 x97) x4)))) (and (and (or x114 (or (or (or x123 x115) x47) x103)) (or (or (or (or x23 x70) x78) x38) x114)) (and (and (or x154 (or (or (or x48 x9) x20) x113)) (or x154 (or (or x5 (or x35 x134)) x66))) (and (or (or (or (or x62 x100) x157) x32) x132) (or (or x19 (or x34 (or x153 x109))) x132))))))))))
(assert (let ((x69 (x124 x90 x57)) (x16 (x124 x90 x40)) (x142 (x124 x57 x49)) (x24 (x124 x57 x40)) (x65 (x124 x90 x6)) (x139 (x124 x6 x57)) (x147 (x124 x40 x49)) (x118 (x124 x49 x6)) (x121 (x124 x57 x57)) (x87 (x124 x40 x57)) (x21 (x124 x49 x40)) (x10 (x124 x6 x6)) (x25 (x124 x6 x90)) (x31 (x124 x90 x49)) (x143 (x124 x57 x6)) (x7 (x124 x6 x49)) (x126 (x124 x57 x90)) (x11 (x124 x49 x49)) (x98 (x124 x49 x57)) (x150 (x124 x40 x40)) (x82 (x124 x40 x6)) (x43 (x124 x40 x90)) (x110 (x124 x49 x90)) (x56 (x124 x6 x40)) (x12 (x124 x90 x90))) (and (and (and (and (not (= x65 x10)) (and (not (= x65 x118)) (and (and (and (and (and (and (not (= x65 x82)) (not (= x143 x82))) (not (= x118 x82))) (not (= x82 x10))) (not (= x143 x65))) (not (= x143 x118))) (not (= x143 x10))))) (not (= x118 x10))) (and (and (and (and (not (= x21 x56)) (and (not (= x16 x56)) (and (not (= x21 x16)) (and (not (= x24 x56)) (and (and (not (= x24 x16)) (and (and (not (= x21 x150)) (and (not (= x150 x16)) (not (= x24 x150)))) (not (= x56 x150)))) (not (= x24 x21))))))) (and (and (and (not (= x69 x98)) (and (and (and (and (and (and (not (= x87 x121)) (not (= x87 x69))) (not (= x98 x87))) (not (= x139 x87))) (not (= x121 x69))) (not (= x98 x121))) (not (= x139 x121)))) (not (= x139 x69))) (not (= x98 x139)))) (and (and (not (= x12 x25)) (and (not (= x110 x12)) (and (not (= x25 x126)) (and (and (not (= x126 x12)) (and (and (not (= x43 x110)) (and (not (= x43 x12)) (not (= x43 x126)))) (not (= x43 x25)))) (not (= x110 x126)))))) (not (= x25 x110)))) (and (and (not (= x7 x31)) (and (not (= x31 x11)) (and (and (and (and (not (= x7 x147)) (and (and (not (= x147 x31)) (not (= x147 x142))) (not (= x11 x147)))) (not (= x142 x31))) (not (= x11 x142))) (not (= x7 x142))))) (not (= x11 x7))))) (and (and (and (and (and (not (= x143 x142)) (and (and (and (and (and (not (= x126 x121)) (and (and (and (not (= x24 x121)) (not (= x126 x24))) (not (= x24 x142))) (not (= x143 x24)))) (not (= x121 x142))) (not (= x121 x143))) (not (= x142 x126))) (not (= x126 x143)))) (and (and (not (= x82 x43)) (and (not (= x43 x147)) (and (and (and (and (not (= x82 x150)) (and (not (= x147 x150)) (and (not (= x150 x87)) (not (= x43 x150))))) (not (= x87 x43))) (not (= x147 x87))) (not (= x82 x87))))) (not (= x82 x147)))) (and (not (= x65 x31)) (and (not (= x12 x65)) (and (not (= x12 x31)) (and (not (= x65 x69)) (and (not (= x69 x31)) (and (and (not (= x65 x16)) (and (and (not (= x69 x16)) (not (= x12 x16))) (not (= x16 x31)))) (not (= x69 x12))))))))) (and (and (and (and (not (= x118 x98)) (and (not (= x98 x11)) (and (not (= x110 x98)) (and (and (not (= x21 x11)) (and (not (= x21 x110)) (not (= x21 x98)))) (not (= x21 x118)))))) (not (= x11 x110))) (not (= x110 x118))) (not (= x11 x118)))) (and (and (not (= x10 x25)) (and (not (= x7 x25)) (and (and (not (= x7 x139)) (and (and (not (= x56 x10)) (and (not (= x7 x56)) (and (not (= x56 x25)) (not (= x139 x56))))) (not (= x25 x139)))) (not (= x10 x139))))) (not (= x10 x7)))))))
(assert (and (and (and (or (= x90 (x124 (x124 x6 x90) x6)) (or (or (= x90 (x124 (x124 x90 x90) x90)) (or (= x90 (x124 (x124 x40 x90) x40)) (= x90 (x124 (x124 x57 x90) x57)))) (= (x124 (x124 x49 x90) x49) x90))) (and (or (or (or (or (= x57 (x124 (x124 x40 x57) x40)) (= (x124 (x124 x57 x57) x57) x57)) (= x57 (x124 (x124 x90 x57) x90))) (= (x124 (x124 x49 x57) x49) x57)) (= x57 (x124 (x124 x6 x57) x6))) (or (or (or (or (= x40 (x124 (x124 x40 x40) x40)) (= x40 (x124 (x124 x57 x40) x57))) (= (x124 (x124 x90 x40) x90) x40)) (= x40 (x124 (x124 x49 x40) x49))) (= x40 (x124 (x124 x6 x40) x6))))) (or (or (= x49 (x124 (x124 x49 x49) x49)) (or (or (= (x124 (x124 x57 x49) x57) x49) (= (x124 (x124 x40 x49) x40) x49)) (= x49 (x124 (x124 x90 x49) x90)))) (= (x124 (x124 x6 x49) x6) x49))) (or (or (or (= (x124 (x124 x90 x6) x90) x6) (or (= (x124 (x124 x57 x6) x57) x6) (= (x124 (x124 x40 x6) x40) x6))) (= x6 (x124 (x124 x49 x6) x49))) (= (x124 (x124 x6 x6) x6) x6))))
(assert (let ((x126 (x124 x90 x57)) (x82 (x124 x6 x40)) (x139 (x124 x57 x6)) (x16 (x124 x40 x90)) (x24 (x124 x40 x57)) (x43 (x124 x90 x40)) (x150 (x124 x40 x40)) (x69 (x124 x57 x90)) (x65 (x124 x6 x90)) (x147 (x124 x49 x40)) (x110 (x124 x90 x49)) (x118 (x124 x6 x49)) (x11 (x124 x49 x49)) (x31 (x124 x49 x90)) (x25 (x124 x90 x6)) (x98 (x124 x57 x49)) (x56 (x124 x40 x6)) (x10 (x124 x6 x6)) (x87 (x124 x57 x40)) (x121 (x124 x57 x57)) (x7 (x124 x49 x6)) (x12 (x124 x90 x90)) (x21 (x124 x40 x49)) (x143 (x124 x6 x57)) (x142 (x124 x49 x57))) (and (or (= (x124 x10 x10) x6) (or (= (x124 x118 x118) x49) (or (= x90 (x124 x65 x65)) (or (= (x124 x143 x143) x57) (= x40 (x124 x82 x82)))))) (and (or (= x6 (x124 x7 x7)) (or (= (x124 x11 x11) x49) (or (or (= (x124 x142 x142) x57) (= x40 (x124 x147 x147))) (= (x124 x31 x31) x90)))) (and (and (or (= x6 (x124 x139 x139)) (or (or (or (= x57 (x124 x121 x121)) (= x40 (x124 x87 x87))) (= x90 (x124 x69 x69))) (= x49 (x124 x98 x98)))) (or (= (x124 x56 x56) x6) (or (or (or (= (x124 x24 x24) x57) (= (x124 x150 x150) x40)) (= (x124 x16 x16) x90)) (= (x124 x21 x21) x49)))) (or (or (or (= x90 (x124 x12 x12)) (or (= (x124 x43 x43) x40) (= (x124 x126 x126) x57))) (= x49 (x124 x110 x110))) (= (x124 x25 x25) x6)))))))
(assert (or (and (= x6 (x124 (x124 x6 x6) x6)) (and (and (and (= (x124 (x124 x57 x6) x6) x57) (= x40 (x124 (x124 x40 x6) x6))) (= x90 (x124 (x124 x90 x6) x6))) (= x49 (x124 (x124 x49 x6) x6)))) (or (and (= (x124 (x124 x6 x49) x49) x6) (and (= (x124 (x124 x49 x49) x49) x49) (and (= x90 (x124 (x124 x90 x49) x49)) (and (= x40 (x124 (x124 x40 x49) x49)) (= (x124 (x124 x57 x49) x49) x57))))) (or (and (= (x124 (x124 x6 x90) x90) x6) (and (and (and (= x40 (x124 (x124 x40 x90) x90)) (= x57 (x124 (x124 x57 x90) x90))) (= x90 (x124 (x124 x90 x90) x90))) (= x49 (x124 (x124 x49 x90) x90)))) (or (and (and (and (= x90 (x124 (x124 x90 x40) x40)) (and (= x57 (x124 (x124 x57 x40) x40)) (= (x124 (x124 x40 x40) x40) x40))) (= x49 (x124 (x124 x49 x40) x40))) (= (x124 (x124 x6 x40) x40) x6)) (and (= (x124 (x124 x6 x57) x57) x6) (and (and (= x90 (x124 (x124 x90 x57) x57)) (and (= x57 (x124 (x124 x57 x57) x57)) (= (x124 (x124 x40 x57) x57) x40))) (= (x124 (x124 x49 x57) x57) x49))))))))
(assert (let ((x21 (x124 x49 x49)) (x56 (x124 x6 x6)) (x16 (x124 x90 x90)) (x24 (x124 x57 x57)) (x150 (x124 x40 x40))) (or (and (not (= x6 x56)) (and (not (= x21 x6)) (and (and (not (= x150 x6)) (not (= x6 x24))) (not (= x6 x16))))) (or (or (and (not (= x90 x56)) (and (and (and (not (= x90 x150)) (not (= x24 x90))) (not (= x90 x16))) (not (= x90 x21)))) (or (and (not (= x56 x57)) (and (and (not (= x16 x57)) (and (not (= x24 x57)) (not (= x57 x150)))) (not (= x21 x57)))) (and (and (and (not (= x40 x16)) (and (not (= x40 x150)) (not (= x24 x40)))) (not (= x21 x40))) (not (= x40 x56))))) (and (not (= x49 x56)) (and (not (= x21 x49)) (and (not (= x49 x16)) (and (not (= x150 x49)) (not (= x49 x24))))))))))
(assert (and (and (and (not (= x49 x90)) (and (and (and (and (and (and (not (= x57 x40)) (not (= x90 x40))) (not (= x40 x49))) (not (= x6 x40))) (not (= x57 x90))) (not (= x49 x57))) (not (= x57 x6)))) (not (= x90 x6))) (not (= x49 x6))))
(assert (or (= (x124 x6 x6) x6) (or (= (x124 x49 x49) x49) (or (= (x124 x90 x90) x90) (or (= x57 (x124 x57 x57)) (= (x124 x40 x40) x40))))))
(assert (let ((x16 (x124 x90 x90)) (x150 (x124 x40 x40)) (x24 (x124 x57 x57)) (x21 (x124 x49 x49)) (x56 (x124 x6 x6))) (and (and (= (x124 x21 x21) x21) (and (= x16 (x124 x16 x16)) (and (= (x124 x24 x24) x24) (= (x124 x150 x150) x150)))) (= x56 (x124 x56 x56)))))
(assert (and (and (= x90 (x124 x49 x49)) (and (= (x124 x57 x49) x40) (= x57 (x124 x49 x6)))) (= (x124 x90 x49) x6)))
(assert (not (and (= (x124 x6 x6) x40) (and (and (and (= (x124 x6 x57) x6) (and (and (and (and (and (and (and (and (and (and (and (and (= (x124 x57 x6) x90) (and (and (and (and (and (= (x124 x40 x6) x6) (and (= x49 (x124 x40 x49)) (and (= (x124 x40 x90) x57) (and (= x40 (x124 x40 x40)) (= (x124 x40 x57) x90))))) (= x49 (x124 x57 x40))) (= x57 (x124 x57 x57))) (= (x124 x57 x90) x6)) (= (x124 x57 x49) x40))) (= (x124 x90 x40) x57)) (= x40 (x124 x90 x57))) (= x90 (x124 x90 x90))) (= (x124 x90 x49) x6)) (= (x124 x90 x6) x49)) (= (x124 x49 x40) x6)) (= x49 (x124 x49 x57))) (= x40 (x124 x49 x90))) (= (x124 x49 x49) x90)) (= x57 (x124 x49 x6))) (= x90 (x124 x6 x40)))) (= x49 (x124 x6 x90))) (= x57 (x124 x6 x49))))))
(assert (let ((x16 (x124 x57 x57)) (x87 (x124 x6 x6)) (x24 (x124 x40 x40)) (x21 (x124 x90 x90)) (x56 (x124 x49 x49))) (let ((x69 (= x16 x57)) (x12 (= x90 x21)) (x25 (= x87 x6)) (x150 (= x40 x24)) (x110 (= x49 x56))) (let ((x139 (or (or (= x90 x56) (or x12 (or (= x90 x16) (= x90 x24)))) (= x87 x90))) (x121 (or (= x87 x40) (or (or (= x40 x21) (or (= x40 x16) x150)) (= x40 x56)))) (x126 (or x25 (or (= x56 x6) (or (or (= x24 x6) (= x6 x16)) (= x21 x6))))) (x43 (or (= x87 x49) (or x110 (or (= x49 x21) (or (= x49 x16) (= x24 x49)))))) (x98 (or (or (or (or (= x24 x57) x69) (= x21 x57)) (= x56 x57)) (= x87 x57)))) (and (and (and (and (and (and (or (not (= (x124 x57 x49) x57)) x43) (and (and (or x98 (not x69)) (or (not (= (x124 x57 x40) x57)) x121)) (or (not (= (x124 x57 x90) x57)) x139))) (or x126 (not (= x57 (x124 x57 x6))))) (and (or (not (= x40 (x124 x40 x6))) x126) (and (or (not (= (x124 x40 x49) x40)) x43) (and (and (or (not (= (x124 x40 x57) x40)) x98) (or x121 (not x150))) (or x139 (not (= (x124 x40 x90) x40))))))) (and (and (or (not (= (x124 x90 x49) x90)) x43) (and (and (or x121 (not (= (x124 x90 x40) x90))) (or x98 (not (= (x124 x90 x57) x90)))) (or x139 (not x12)))) (or (not (= (x124 x90 x6) x90)) x126))) (and (or (not (= x49 (x124 x49 x6))) x126) (and (and (or x139 (not (= x49 (x124 x49 x90)))) (and (or (not (= x49 (x124 x49 x40))) x121) (or (not (= x49 (x124 x49 x57))) x98))) (or (not x110) x43)))) (and (and (or x43 (not (= x6 (x124 x6 x49)))) (and (and (or (not (= x6 (x124 x6 x57))) x98) (or (not (= x6 (x124 x6 x40))) x121)) (or x139 (not (= x6 (x124 x6 x90)))))) (or x126 (not x25))))))))
(assert (or (and (and (and (not (= (x124 (x124 x90 x6) x6) x90)) (and (not (= x40 (x124 (x124 x40 x6) x6))) (not (= x57 (x124 (x124 x57 x6) x6))))) (not (= (x124 (x124 x49 x6) x6) x49))) (not (= (x124 (x124 x6 x6) x6) x6))) (or (or (or (and (not (= x6 (x124 (x124 x6 x40) x40))) (and (and (and (not (= x40 (x124 (x124 x40 x40) x40))) (not (= (x124 (x124 x57 x40) x40) x57))) (not (= (x124 (x124 x90 x40) x40) x90))) (not (= (x124 (x124 x49 x40) x40) x49)))) (and (not (= x6 (x124 (x124 x6 x57) x57))) (and (not (= x49 (x124 (x124 x49 x57) x57))) (and (and (not (= (x124 (x124 x40 x57) x57) x40)) (not (= x57 (x124 (x124 x57 x57) x57)))) (not (= x90 (x124 (x124 x90 x57) x57))))))) (and (not (= (x124 (x124 x6 x90) x90) x6)) (and (not (= x49 (x124 (x124 x49 x90) x90))) (and (not (= x90 (x124 (x124 x90 x90) x90))) (and (not (= x40 (x124 (x124 x40 x90) x90))) (not (= x57 (x124 (x124 x57 x90) x90)))))))) (and (and (not (= x49 (x124 (x124 x49 x49) x49))) (and (and (not (= x57 (x124 (x124 x57 x49) x49))) (not (= (x124 (x124 x40 x49) x49) x40))) (not (= x90 (x124 (x124 x90 x49) x49))))) (not (= (x124 (x124 x6 x49) x49) x6))))))
(assert (let ((x126 (x124 x90 x57)) (x31 (x124 x49 x90)) (x69 (x124 x57 x90)) (x142 (x124 x49 x57)) (x7 (x124 x49 x6)) (x56 (x124 x40 x6)) (x139 (x124 x57 x6)) (x12 (x124 x90 x90)) (x82 (x124 x6 x40)) (x43 (x124 x90 x40)) (x21 (x124 x40 x49)) (x110 (x124 x90 x49)) (x11 (x124 x49 x49)) (x143 (x124 x6 x57)) (x147 (x124 x49 x40)) (x118 (x124 x6 x49)) (x25 (x124 x90 x6)) (x150 (x124 x40 x40)) (x87 (x124 x57 x40)) (x98 (x124 x57 x49)) (x65 (x124 x6 x90)) (x16 (x124 x40 x90)) (x121 (x124 x57 x57)) (x24 (x124 x40 x57)) (x10 (x124 x6 x6))) (and (and (and (and (and (and (and (and (or (or (or (= x150 x90) (or (= x150 x57) (= x150 x40))) (= x49 x150)) (= x150 x6)) (or (= x24 x6) (or (= x49 x24) (or (= x24 x90) (or (= x24 x40) (= x57 x24)))))) (or (or (or (= x16 x90) (or (= x16 x57) (= x40 x16))) (= x49 x16)) (= x6 x16))) (or (or (or (= x90 x21) (or (= x21 x40) (= x21 x57))) (= x21 x49)) (= x21 x6))) (or (= x56 x6) (or (or (= x90 x56) (or (= x57 x56) (= x40 x56))) (= x56 x49)))) (and (or (= x139 x6) (or (= x49 x139) (or (or (= x139 x57) (= x139 x40)) (= x90 x139)))) (and (and (or (or (= x49 x69) (or (= x90 x69) (or (= x69 x57) (= x40 x69)))) (= x6 x69)) (and (or (= x6 x121) (or (= x49 x121) (or (= x90 x121) (or (= x121 x40) (= x121 x57))))) (or (= x87 x6) (or (= x87 x49) (or (= x87 x90) (or (= x87 x40) (= x57 x87))))))) (or (or (= x49 x98) (or (= x90 x98) (or (= x57 x98) (= x40 x98)))) (= x98 x6))))) (and (or (or (or (= x90 x25) (or (= x40 x25) (= x25 x57))) (= x25 x49)) (= x6 x25)) (and (or (= x110 x6) (or (= x49 x110) (or (= x110 x90) (or (= x57 x110) (= x40 x110))))) (and (or (or (= x49 x12) (or (or (= x12 x57) (= x40 x12)) (= x12 x90))) (= x12 x6)) (and (or (or (or (or (= x126 x57) (= x126 x40)) (= x90 x126)) (= x126 x49)) (= x6 x126)) (or (= x6 x43) (or (or (= x43 x90) (or (= x57 x43) (= x43 x40))) (= x49 x43)))))))) (and (and (and (and (or (or (= x49 x142) (or (= x90 x142) (or (= x142 x40) (= x57 x142)))) (= x142 x6)) (or (or (= x49 x147) (or (= x147 x90) (or (= x147 x40) (= x147 x57)))) (= x6 x147))) (or (= x31 x6) (or (= x31 x49) (or (or (= x31 x57) (= x40 x31)) (= x90 x31))))) (or (= x11 x6) (or (or (or (= x11 x57) (= x11 x40)) (= x90 x11)) (= x11 x49)))) (or (= x7 x6) (or (or (= x90 x7) (or (= x7 x40) (= x57 x7))) (= x49 x7))))) (and (and (and (or (or (or (= x90 x65) (or (= x57 x65) (= x40 x65))) (= x49 x65)) (= x6 x65)) (and (or (or (= x49 x82) (or (= x82 x90) (or (= x82 x40) (= x82 x57)))) (= x6 x82)) (or (or (= x49 x143) (or (or (= x143 x40) (= x57 x143)) (= x90 x143))) (= x6 x143)))) (or (= x118 x6) (or (= x49 x118) (or (= x118 x90) (or (= x57 x118) (= x40 x118)))))) (or (= x10 x6) (or (or (or (= x57 x10) (= x10 x40)) (= x10 x90)) (= x49 x10)))))))
(assert (let ((x81 (x124 x57 x57)) (x140 (x124 x49 x57)) (x93 (x124 x49 x90)) (x146 (x124 x40 x57)) (x67 (x124 x40 x40)) (x94 (x124 x6 x49)) (x72 (x124 x90 x40)) (x22 (x124 x57 x49)) (x106 (x124 x90 x49)) (x68 (x124 x6 x40)) (x133 (x124 x90 x6)) (x15 (x124 x57 x6)) (x26 (x124 x6 x90)) (x83 (x124 x90 x90)) (x75 (x124 x6 x6)) (x130 (x124 x49 x6)) (x63 (x124 x40 x90)) (x30 (x124 x57 x90)) (x73 (x124 x49 x49)) (x58 (x124 x90 x57)) (x131 (x124 x40 x49)) (x88 (x124 x57 x40)) (x33 (x124 x6 x57)) (x76 (x124 x40 x6)) (x3 (x124 x49 x40))) (let ((x56 (not (= x40 x72))) (x12 (not (= x40 x22))) (x36 (not (= x68 x6))) (x92 (not (= x57 x30))) (x71 (not (= x88 x57))) (x135 (not (= x90 x26))) (x24 (not (= x88 x40))) (x65 (not (= x40 x94))) (x110 (not (= x93 x40))) (x20 (not (= x131 x49))) (x122 (not (= x81 x57))) (x74 (not (= x90 x75))) (x157 (not (= x26 x49))) (x42 (not (= x57 x76))) (x82 (not (= x26 x40))) (x77 (not (= x106 x57))) (x54 (not (= x57 x3))) (x143 (not (= x133 x40))) (x85 (not (= x30 x90))) (x91 (not (= x57 x67))) (x80 (not (= x90 x76))) (x41 (not (= x90 x93))) (x35 (not (= x63 x49))) (x99 (not (= x81 x49))) (x45 (not (= x94 x6))) (x126 (not (= x140 x40))) (x159 (not (= x57 x73))) (x17 (not (= x72 x90))) (x51 (not (= x83 x90))) (x153 (not (= x93 x49))) (x78 (not (= x67 x6))) (x69 (not (= x30 x40))) (x150 (not (= x67 x40))) (x142 (not (= x40 x68))) (x27 (not (= x140 x90))) (x152 (not (= x90 x15))) (x136 (not (= x90 x133))) (x127 (not (= x57 x93))) (x148 (not (= x67 x90))) (x123 (not (= x81 x6))) (x155 (not (= x88 x90))) (x37 (not (= x67 x49))) (x43 (not (= x40 x131))) (x55 (not (= x131 x90))) (x100 (not (= x49 x33))) (x86 (not (= x3 x6))) (x98 (not (= x83 x40))) (x62 (not (= x49 x15))) (x144 (not (= x33 x57))) (x60 (not (= x75 x57))) (x111 (not (= x90 x146))) (x70 (not (= x130 x49))) (x46 (not (= x76 x6))) (x66 (not (= x30 x49))) (x10 (not (= x40 x75))) (x117 (not (= x130 x90))) (x103 (not (= x63 x6))) (x2 (not (= x90 x73))) (x145 (not (= x140 x57))) (x108 (not (= x90 x58))) (x158 (not (= x57 x68))) (x44 (not (= x57 x22))) (x5 (not (= x49 x58))) (x38 (not (= x6 x88))) (x8 (not (= x90 x68))) (x50 (not (= x58 x57))) (x11 (not (= x40 x33))) (x107 (not (= x131 x6))) (x147 (not (= x40 x73))) (x104 (not (= x90 x81))) (x61 (not (= x6 x15))) (x48 (not (= x49 x83))) (x14 (not (= x6 x30))) (x114 (not (= x58 x6))) (x39 (not (= x140 x6))) (x79 (not (= x6 x75))) (x115 (not (= x6 x146))) (x23 (not (= x49 x75))) (x87 (not (= x63 x40))) (x132 (not (= x49 x94))) (x9 (not (= x3 x49))) (x109 (not (= x49 x106))) (x105 (not (= x33 x6))) (x156 (not (= x94 x90))) (x47 (not (= x6 x72))) (x19 (not (= x68 x49))) (x52 (not (= x57 x133))) (x154 (not (= x22 x49))) (x95 (not (= x133 x6))) (x29 (not (= x57 x83))) (x28 (not (= x49 x146))) (x84 (not (= x57 x15))) (x31 (not (= x40 x76))) (x125 (not (= x63 x90))) (x96 (not (= x90 x33))) (x129 (not (= x63 x57))) (x138 (not (= x131 x57))) (x34 (not (= x73 x49))) (x149 (not (= x6 x26))) (x25 (not (= x106 x40))) (x112 (not (= x94 x57))) (x102 (not (= x90 x106))) (x64 (not (= x72 x57))) (x13 (not (= x90 x3))) (x4 (not (= x93 x6))) (x53 (not (= x76 x49))) (x139 (not (= x40 x3))) (x118 (not (= x40 x130))) (x113 (not (= x49 x140))) (x1 (not (= x6 x83))) (x141 (not (= x57 x26))) (x97 (not (= x22 x6))) (x7 (not (= x40 x15))) (x116 (not (= x57 x146))) (x89 (not (= x22 x90))) (x16 (not (= x40 x146))) (x32 (not (= x133 x49))) (x120 (not (= x57 x130))) (x121 (not (= x40 x58))) (x21 (not (= x40 x81))) (x18 (not (= x6 x73))) (x128 (not (= x130 x6))) (x134 (not (= x49 x72))) (x119 (not (= x106 x6))) (x59 (not (= x49 x88)))) (or (and (and (and (or x45 x128) (and (or x149 x95) (and (or x36 x46) (or x61 x105)))) (or x79 x79)) (and (and (and (and (or x119 x4) (and (and (or x47 x103) (or x114 x14)) (or x1 x1))) (or x149 x95)) (and (and (or x36 x46) (and (and (and (or x78 x78) (or x115 x38)) (or x47 x103)) (or x86 x107))) (and (or x61 x105) (and (or x97 x39) (and (and (or x38 x115) (or x123 x123)) (or x14 x114)))))) (and (or x45 x128) (and (or x18 x18) (and (and (or x97 x39) (or x107 x86)) (or x4 x119)))))) (or (or (or (and (and (and (or x118 x65) (and (and (or x110 x25) (and (or x126 x12) (or x43 x139))) (or x147 x147))) (and (and (and (or x31 x142) (and (and (and (or x150 x150) (or x24 x16)) (or x56 x87)) (or x139 x43))) (and (and (and (or x121 x69) (and (or x21 x21) (or x16 x24))) (or x12 x126)) (or x11 x7))) (and (and (or x110 x25) (and (and (or x121 x69) (or x56 x87)) (or x98 x98))) (or x143 x82)))) (and (or x10 x10) (and (and (or x143 x82) (and (or x142 x31) (or x11 x7))) (or x118 x65)))) (and (and (and (and (and (and (or x54 x138) (and (and (or x91 x91) (or x71 x116)) (or x129 x64))) (or x42 x158)) (and (and (and (and (or x122 x122) (or x116 x71)) (or x50 x92)) (or x44 x145)) (or x144 x84))) (and (or x141 x52) (and (and (or x29 x29) (and (or x64 x129) (or x50 x92))) (or x127 x77)))) (and (or x120 x112) (and (and (or x127 x77) (and (or x44 x145) (or x54 x138))) (or x159 x159)))) (and (or x60 x60) (and (and (or x141 x52) (and (or x144 x84) (or x158 x42))) (or x120 x112))))) (and (and (and (or x156 x117) (and (or x136 x135) (and (or x80 x8) (or x96 x152)))) (or x74 x74)) (and (and (and (or x136 x135) (and (and (and (or x85 x108) (or x17 x125)) (or x51 x51)) (or x102 x41))) (and (and (or x8 x80) (and (and (or x125 x17) (and (or x155 x111) (or x148 x148))) (or x55 x13))) (and (or x152 x96) (and (or x89 x27) (and (and (or x104 x104) (or x155 x111)) (or x85 x108)))))) (and (or x156 x117) (and (and (and (or x55 x13) (or x89 x27)) (or x41 x102)) (or x2 x2)))))) (and (and (and (or x132 x70) (and (or x34 x34) (and (or x109 x153) (and (or x154 x113) (or x20 x9))))) (and (and (and (and (or x113 x154) (and (and (or x59 x28) (or x99 x99)) (or x66 x5))) (or x62 x100)) (and (and (or x9 x20) (and (and (or x28 x59) (or x37 x37)) (or x134 x35))) (or x19 x53))) (and (or x157 x32) (and (or x153 x109) (and (or x48 x48) (and (or x35 x134) (or x5 x66))))))) (and (and (and (or x32 x157) (and (or x62 x100) (or x53 x19))) (or x70 x132)) (or x23 x23))))))))
(assert (or (and (not (= (x124 x6 (x124 x6 x6)) x6)) (and (and (and (not (= x40 (x124 x6 (x124 x6 x40)))) (not (= (x124 x6 (x124 x6 x57)) x57))) (not (= (x124 x6 (x124 x6 x90)) x90))) (not (= (x124 x6 (x124 x6 x49)) x49)))) (or (or (and (not (= x6 (x124 x90 (x124 x90 x6)))) (and (and (and (not (= x57 (x124 x90 (x124 x90 x57)))) (not (= x40 (x124 x90 (x124 x90 x40))))) (not (= x90 (x124 x90 (x124 x90 x90))))) (not (= (x124 x90 (x124 x90 x49)) x49)))) (or (and (not (= (x124 x57 (x124 x57 x6)) x6)) (and (and (and (not (= x40 (x124 x57 (x124 x57 x40)))) (not (= (x124 x57 (x124 x57 x57)) x57))) (not (= (x124 x57 (x124 x57 x90)) x90))) (not (= x49 (x124 x57 (x124 x57 x49)))))) (and (and (and (not (= (x124 x40 (x124 x40 x90)) x90)) (and (not (= x57 (x124 x40 (x124 x40 x57)))) (not (= x40 (x124 x40 (x124 x40 x40)))))) (not (= (x124 x40 (x124 x40 x49)) x49))) (not (= (x124 x40 (x124 x40 x6)) x6))))) (and (and (not (= x49 (x124 x49 (x124 x49 x49)))) (and (not (= (x124 x49 (x124 x49 x90)) x90)) (and (not (= x57 (x124 x49 (x124 x49 x57)))) (not (= (x124 x49 (x124 x49 x40)) x40))))) (not (= x6 (x124 x49 (x124 x49 x6))))))))
(assert (let ((x121 (x124 x57 x57)) (x150 (x124 x40 x40)) (x82 (x124 x40 x6)) (x12 (x124 x90 x90)) (x65 (x124 x90 x6)) (x110 (x124 x49 x90)) (x87 (x124 x40 x57)) (x118 (x124 x49 x6)) (x143 (x124 x57 x6)) (x43 (x124 x40 x90)) (x10 (x124 x6 x6)) (x142 (x124 x57 x49)) (x31 (x124 x90 x49)) (x25 (x124 x6 x90)) (x7 (x124 x6 x49)) (x69 (x124 x90 x57)) (x126 (x124 x57 x90)) (x98 (x124 x49 x57)) (x56 (x124 x6 x40)) (x16 (x124 x90 x40)) (x24 (x124 x57 x40)) (x139 (x124 x6 x57)) (x11 (x124 x49 x49)) (x21 (x124 x49 x40)) (x147 (x124 x40 x49))) (or (and (not (= x6 (x124 x10 x10))) (and (and (and (not (= (x124 x143 x143) x57)) (not (= (x124 x82 x82) x40))) (not (= (x124 x65 x65) x90))) (not (= (x124 x118 x118) x49)))) (or (and (and (and (and (not (= (x124 x147 x147) x40)) (not (= (x124 x142 x142) x57))) (not (= x90 (x124 x31 x31)))) (not (= (x124 x11 x11) x49))) (not (= x6 (x124 x7 x7)))) (or (or (and (and (not (= x49 (x124 x98 x98))) (and (not (= (x124 x69 x69) x90)) (and (not (= (x124 x87 x87) x40)) (not (= (x124 x121 x121) x57))))) (not (= x6 (x124 x139 x139)))) (and (and (not (= x49 (x124 x21 x21))) (and (not (= x90 (x124 x16 x16))) (and (not (= (x124 x150 x150) x40)) (not (= x57 (x124 x24 x24)))))) (not (= x6 (x124 x56 x56))))) (and (and (not (= x49 (x124 x110 x110))) (and (and (not (= x57 (x124 x126 x126))) (not (= x40 (x124 x43 x43)))) (not (= (x124 x12 x12) x90)))) (not (= x6 (x124 x25 x25)))))))))
(assert (or (and (not (= x6 (x124 (x124 x6 x6) x6))) (and (and (and (not (= (x124 (x124 x6 x40) x6) x40)) (not (= x57 (x124 (x124 x6 x57) x6)))) (not (= x90 (x124 (x124 x6 x90) x6)))) (not (= x49 (x124 (x124 x6 x49) x6))))) (or (and (and (not (= (x124 (x124 x49 x49) x49) x49)) (and (and (not (= (x124 (x124 x49 x40) x49) x40)) (not (= x57 (x124 (x124 x49 x57) x49)))) (not (= x90 (x124 (x124 x49 x90) x49))))) (not (= (x124 (x124 x49 x6) x49) x6))) (or (or (and (and (not (= x49 (x124 (x124 x57 x49) x57))) (and (not (= (x124 (x124 x57 x90) x57) x90)) (and (not (= x57 (x124 (x124 x57 x57) x57))) (not (= (x124 (x124 x57 x40) x57) x40))))) (not (= x6 (x124 (x124 x57 x6) x57)))) (and (not (= x6 (x124 (x124 x40 x6) x40))) (and (and (and (not (= (x124 (x124 x40 x40) x40) x40)) (not (= x57 (x124 (x124 x40 x57) x40)))) (not (= x90 (x124 (x124 x40 x90) x40)))) (not (= (x124 (x124 x40 x49) x40) x49))))) (and (not (= x6 (x124 (x124 x90 x6) x90))) (and (not (= x49 (x124 (x124 x90 x49) x90))) (and (not (= (x124 (x124 x90 x90) x90) x90)) (and (not (= (x124 (x124 x90 x40) x90) x40)) (not (= x57 (x124 (x124 x90 x57) x90)))))))))))
(check-sat)
(exit)
